
;this file is automatically generated: Mon Feb 10 17:02:04 CST 2020

;declarations generated

(declare-fun oclExcludes ( Int Int) Bool)
(declare-fun Cardinality ( Int) Int)
(declare-fun oclSelect ( Int Bool) Int)
(declare-fun class23_Class23IntAttr1 ( Int) Int)
(declare-fun Enum0 ( Int) Int)
(declare-fun Enum1 ( Int) Int)
(declare-fun type_dd2818af_e4bb_4d95_82cd_7940bbdb5e78_Class23 ( Int) Bool)
(declare-fun container_ ( Int) Int)
(declare-fun oclIncludes ( Int Int) Bool)
(declare-fun obj_61c218b7_330c_40f5_9fd0_70ae2a9b63e0 ( Int) Int)
(declare-fun ObjAt ( Int Int) Int)

;formula(s) generated
(assert (forall ((p Int)) (=> ( type_dd2818af_e4bb_4d95_82cd_7940bbdb5e78_Class23 p )  (and (>= ( Enum0 ( obj_61c218b7_330c_40f5_9fd0_70ae2a9b63e0 p )  )  0) (<= ( Enum0 ( obj_61c218b7_330c_40f5_9fd0_70ae2a9b63e0 p )  )  3)))))
(assert (! (or (forall ((v Int)) (=> ( type_dd2818af_e4bb_4d95_82cd_7940bbdb5e78_Class23 v )  (not (= ( Enum0 ( obj_61c218b7_330c_40f5_9fd0_70ae2a9b63e0 v )  )  1) ))) (forall ((v Int)) (=> ( type_dd2818af_e4bb_4d95_82cd_7940bbdb5e78_Class23 v )  (not (= ( class23_Class23IntAttr1 ( obj_61c218b7_330c_40f5_9fd0_70ae2a9b63e0 v )  )  1) )))):named l0))
(assert (exists ((o Int)) ( type_dd2818af_e4bb_4d95_82cd_7940bbdb5e78_Class23 ( obj_61c218b7_330c_40f5_9fd0_70ae2a9b63e0 o )  ) ))

 ;end of formula 